p cnf 7230 16
-5190 -5503 -5721 0
-5487 -5489 -5717 0
-5483 -5485 -5715 0
5190 -5722 0
5487 -5718 0
5483 -5716 0
5721 5722 0
5719 5720 0
5491 -5720 0
-5491 -5719 0
5717 5718 0
5715 5716 0
5503 -5722 0
5489 -5718 0
5485 -5716 0
5495 -5724 0
